sets/C/cp-n21-k4.vrp
NAME : (null)
COMMENT : (null)
TYPE : CVRP
DIMENSION : 21
EDGE_WEIGHT_TYPE : EUC_2D
CAPACITY : 81
NODE_COORD_SECTION
 1  18  14
 2  13  14
 3   7  15
 4   2  16
 5  10   0
 6   0   8
 7   8  10
 8   0  14
 9  11  17
10  11   7
11   9   3
12   5  11
13  10  18
14  11  10
15  19   7
16  11  13
17  12   1
18  12  12
19  17  16
20   2   5
21   7   6
DEMAND_SECTION
 1   0
 2  23
 3  14
 4  17
 5   1
 6  12
 7  13
 8  10
 9  10
10  11
11  17
12   9
13  17
14  13
15   5
16  21
17  21
18  21
19   2
20  10
21  13
DEPOT_SECTION
 1
-1
EOF