sets/C/cp-n21-k4.opt
Route #1: 15 2 3 12 8
Route #2: 17 9 10 4 16 14
Route #3: 13 20 19 5 7 11 6
Route #4: 1 18
cost 129
